Optimal - objective value -652.00000000
     22 x_22                   1                    12.5
     26 x_26                   1                     -55
     28 x_28                   1                       0
     32 x_32                   1                       0
     36 x_36                   1                       0
     38 x_38                   1                      -4
     41 x_41                   1                       0
     44 x_44                   1                   -41.5
     47 x_47                   1                    51.5
